n_machines = 10;
n_resources = 20;
n_jobs = 100;
horizon = 49794;
LB = 4979;
n_jobs_per_resource = [5, 5, 5, 5, 5, 5, 5, 5, 5, 5, 5, 5, 5, 5, 5, 5, 5, 5, 5, 5];
duration = [186, 554, 164, 766, 861, 201, 248, 985, 93, 734, 575, 764, 819, 792, 322, 180, 556, 91, 411, 559, 680, 574, 484, 401, 743, 528, 949, 781, 153, 388, 896, 145, 218, 371, 309, 434, 889, 376, 85, 94, 676, 742, 574, 185, 658, 374, 578, 375, 524, 261, 460, 817, 673, 106, 400, 898, 796, 189, 390, 753, 140, 507, 955, 889, 248, 94, 683, 123, 677, 98, 359, 381, 285, 242, 326, 220, 885, 984, 316, 645, 804, 795, 652, 594, 387, 635, 307, 800, 462, 576, 891, 988, 437, 904, 56, 918, 207, 120, 123, 293]